(set-logic QF_S) 
(declare-fun T1 () String) 
(declare-fun Z1 () String) 
(declare-fun C () String) 
(declare-fun G () String) 
(declare-fun R1 () String) 
(declare-fun O3 () String) 
(declare-fun M () String) 
(declare-fun L3 () String) 
(declare-fun I3 () String) 
(declare-fun G1 () String) 
(declare-fun V3 () String) 
(declare-fun R2 () String) 
(declare-fun Q2 () String) 
(declare-fun O () String) 
(declare-fun G3 () String) 
(declare-fun H1 () String) 
(declare-fun X1 () String) 
(declare-fun Q3 () String) 
(declare-fun O1 () String) 
(declare-fun W () String) 
(declare-fun V () String) 
(declare-fun Z2 () String) 
(declare-fun Z () String) 
(declare-fun R3 () String) 
(declare-fun E1 () String) 
(declare-fun X () String) 
(declare-fun K () String) 
(declare-fun B1 () String) 
(declare-fun P2 () String) 
(declare-fun P () String) 
(declare-fun M1 () String) 
(declare-fun M3 () String) 
(declare-fun L () String) 
(declare-fun X2 () String) 
(declare-fun I2 () String) 
(declare-fun D () String) 
(declare-fun C2 () String) 
(declare-fun F2 () String) 
(declare-fun B3 () String) 
(declare-fun W2 () String) 
(declare-fun O2 () String) 
(declare-fun H3 () String) 
(declare-fun Q () String) 
(declare-fun C1 () String) 
(declare-fun B () String) 
(declare-fun S2 () String) 
(declare-fun J1 () String) 
(declare-fun N3 () String) 
(declare-fun S () String) 
(declare-fun W1 () String) 
(declare-fun Q1 () String) 
(declare-fun I () String) 
(declare-fun F () String) 
(declare-fun J3 () String) 
(declare-fun J2 () String) 
(declare-fun A1 () String) 
(declare-fun T3 () String) 
(declare-fun I1 () String) 
(declare-fun K2 () String) 
(declare-fun U1 () String) 
(declare-fun L1 () String) 
(declare-fun T2 () String) 
(declare-fun A3 () String) 
(declare-fun A () String) 
(declare-fun V2 () String) 
(declare-fun N1 () String) 
(declare-fun L2 () String) 
(declare-fun E3 () String) 
(declare-fun D3 () String) 
(declare-fun K1 () String) 
(declare-fun T () String) 
(declare-fun F3 () String) 
(declare-fun C3 () String) 
(declare-fun Y1 () String) 
(declare-fun S1 () String) 
(declare-fun D1 () String) 
(declare-fun U2 () String) 
(declare-fun Y2 () String) 
(declare-fun D2 () String) 
(declare-fun P3 () String) 
(declare-fun F1 () String) 
(declare-fun S3 () String) 
(declare-fun A2 () String) 
(declare-fun J () String) 
(declare-fun Y () String) 
(declare-fun K3 () String) 
(declare-fun U () String) 
(assert (= (str.++ "i" "p" T1 Z1 "b" "m" "b" "d" "d" "g" "d" "f" "z" "u" "r" "e" "h" "e" "i" "v" "j" "l" "g" C "e" "k" "k" "b" "o" "t" "r" "i" "q" G "l" "r" "a" R1 "l" "x" "t" "z" "v" "k" "n" "y" O3 "w" "k" "m" "m" "i") (str.++ "i" "p" "z" "d" "b" "m" "b" "d" "d" "g" "d" "f" "z" "u" "r" M "h" L3 "j" "l" "g" "b" "u" "e" "k" "k" "b" "o" "t" "r" I3 "z" "l" "l" "r" "a" "u" "d" "a" "b" "z" "l" "x" "t" "z" "v" "k" "n" "y" "z" "c" "w" "k" "m" "m" "i")))
(assert (= (str.++ G1 "b" "b" V3 "u" "k" "v" "g" R2 "u" "f" "v" "k" "t" "z" "h" Q2 "r" O "j" "d" "j" "q" "p" "e" "f" "b" "g" "y" "u" G3 "v" "m" "k" "r" "q" "e" "t" "u" "z" "f" "f" "y" H1 "u" "d" "e" "o" "d" "d") (str.++ "l" "v" "b" "b" "r" "g" "e" "u" "k" "v" "g" "o" "h" "u" "f" "v" "k" "t" "z" "h" X1 Q3 "r" "k" "q" "j" O1 "j" "q" "p" G "o" "c" "v" "m" "k" "r" "q" "e" "t" "u" W "y" "u" "o" "k" "u" "d" "e" "o" "d" "d")))
(assert (= (str.++ "m" "o" "m" "m" "l" "v" "t" V O3 "f" Z2 "b" "o" "i" "x" "k" "k" "n" "x" "u" "f" "p" "u" "z" Z "m" "q" "j" "n" "g" "f" "q" "c" "d" "u" R3 "h" "p" "i" "b" "f" "k" "w" "m" "f" "l" "b" "g" "l" E1 "z" "i" "r" "d") (str.++ X "m" "l" "v" "t" "d" "i" "f" "g" K "o" "i" "x" B1 "k" "n" P2 "p" "u" P "z" "e" "m" "q" "j" M1 "u" M3 L "f" "k" "w" "m" "f" "l" "b" "g" "l" "q" "q" G "r" "d")))
(assert (= (str.++ X2 "d" "a" I2 "a" D C2 "r" "i" "f" "z" "d" F2 "a" "s" "h" "d" "l" "c" "w" B3 W2 "f" "f" "f" "m" "t" "p" R2 "j" "x" "k" "f" "t" "s" "b" "x" "u" "h" "v" O2 E1 "a" "b" "h" "u" "g" Z1 "f" "i") (str.++ "o" "t" "n" "b" "h" "d" "a" "s" "a" R3 H3 "i" "f" "z" "d" "k" "a" "s" "h" "d" "l" "c" X1 "b" "f" "f" "f" W "t" "p" "o" "w" "j" "x" "k" "f" "t" "s" "b" "x" "u" "h" "v" "b" "q" "z" "c" "z" "a" "b" "h" "u" "g" "k" "v" "f" "i")))
(assert (= (str.++ "p" V Q "d" O "t" "y" "z" "s" "z" "z" "a" "k" "p" C1 B "k" "o" "x" G "t" "r" "g" "w" S2 P "g" "e" "j" "p" "p" "p" "r" Z2 "y" V3 "y" "u" J1 "y" "g" "f") (str.++ "p" "z" "a" "u" "w" "e" "c" "d" "b" "t" "y" "z" "s" "z" "z" "a" "k" "p" "q" "h" "k" "b" "n" "w" "k" "o" "x" "e" "d" "j" "t" E1 "g" "w" "z" "q" "g" "x" "a" "h" "g" "e" "j" "p" "p" "p" "r" "x" "y" "t" "y" "p" "e" "y" "u" "o" "j" "y" "g" "f")))
(assert (= (str.++ N3 "u" "w" W "u" S "s" W1 Q1 "i" I3 "u" "t" "e" "d" "y" "g" "o" "d" "o" "b" "d" "c" "b" "k" I "p" "e" "z" "r" "w" "v" "x" "n" "v" "o" "m" F "j" "f" "j" "q" "v" "c" "x" Z1) (str.++ "m" "u" I2 "x" J3 "f" "l" L3 "s" "y" "f" "o" "m" "i" "v" "u" "t" "e" "d" "y" "g" "o" K "d" "c" "b" "k" "k" "m" "p" "m" "p" "e" J2 "w" "v" "x" "n" Q A1 "d" "u" "j" "f" "j" "q" "v" T3 "w")))
(assert (= (str.++ "c" "l" "a" "e" "q" "e" "x" "o" "l" "l" "a" "b" "i" "b" "n" "h" "d" "t" "i" "o" "t" "y" "y" "l" "q" "x" "n" "v" "u" "m" "g" "p" "k" "w" "o" "m" I1 "s" "o" "v" "h" V3 "y" "v" "i" "o" "i" "s" "c" "y" "v" "n" "h" "t" "q" "z") (str.++ "c" "l" "a" K2 "b" B3 "b" "n" "h" L U1 L1 "t" "y" "y" "l" "q" "x" "n" "v" "u" "m" "g" "p" "k" "w" "o" "m" "p" "u" "u" "a" "s" "o" "v" "h" R2 "v" "i" "o" "i" "s" T2 A3 "z")))
(assert (= (str.++ "f" "i" "o" "l" "r" "d" "d" "q" "d" "i" A "j" "n" "b" "s" "s" "s" "y" "a" "w" "r" "e" "q" "r" "f" "e" "h" "a" "d" W1 "g" "a" "r" "s" "f" "w" "x" "d" "t" "r" "p" "p" "z" "v" C "t" "f" F "j" "h" "c" "m" "z" "t" "v" "c" "r") (str.++ "f" "i" "o" Q2 "d" "d" "q" "d" "i" "b" "j" "n" "b" V2 "s" "s" "y" "a" "w" "r" I2 A3 "a" "d" "k" "g" "a" "r" "s" "f" "w" "x" "d" N1 "p" "p" "z" "v" "n" L2 E3 "c" "m" "z" "t" A1 "r")))
(assert (= (str.++ "o" "g" D3 "z" "y" "u" "u" "s" "d" "h" "o" Q2 "h" "i" "l" "a" "x" "r" "j" "h" "s" "d" "b" "p" "w" "f" "s" "s" "c" D "b" "z" "n" "o" "k" "z" "j" "i" "t" "g" "v" "d" "f" "f" "a" "y" "n" "s" "r" "f" "k" "m" "x" "g" "q") (str.++ M3 "g" "y" "l" "c" "z" "y" "u" "u" "s" "d" "h" "o" "r" "j" "x" "s" "h" Z1 "x" "r" "j" "h" "s" "d" "b" K1 "w" "f" "s" "s" "c" "e" "b" T "o" "k" "z" "j" "i" "t" "g" "v" "d" "f" "f" "a" "y" "n" "s" "r" "f" "k" "m" "x" "g" "q")))
(assert (= (str.++ F3 V3 "v" "d" "s" "w" S2 C3 "v" "e" "b" "u" "l" "m" "v" "c" "i" "k" Z1 "u" "i" "s" "r" "u" "f" "t" A3 "z" "f" "n" "z" Y1 "o" "w" "l" "s" "j" "j" "b" "g" "a" "r" V "y" S1 "q" "a" "d" "t") (str.++ J2 "h" "b" "u" "c" "v" "d" "s" "w" C2 D1 "u" O3 W1 "k" "u" "a" "f" "u" "i" "s" "r" "u" "f" "t" "b" "x" "i" "z" "f" "n" "z" "g" "o" "w" "l" "s" U2 "j" "b" "g" "a" "r" "n" "y" "n" "y" "u" "v" "e" "q" O2 "t")))
(assert (= (str.++ "b" "f" "s" "z" "d" "o" "z" "t" "r" W1 "l" "k" "t" "l" "n" "i" D3 "c" "o" "f" "o" "s" G1 "w" "w" "l" "h" "m" "w" Y2 "t" "a" "u" "l" "o" "b" "w" "x" "g" "h" "a" "n" "b" "i" "z" "e" "j" "p" "i" "s" "q" "v" "e" "h" "s" "g" "c" "v") (str.++ "b" "f" "s" "z" "d" "o" "z" "t" "r" "i" "l" "k" "t" "l" "n" "i" "v" "n" "c" "c" "o" "f" "o" "s" "q" "w" "w" "l" Q2 "w" "v" "t" D2 "l" "o" "b" "w" "x" "g" A3 "b" "i" "z" N3 "q" "v" "e" "h" "s" "g" "c" "v")))
(assert (= (str.++ "p" J2 "c" "n" "i" P3 "k" "k" U2 "o" "q" "d" "k" "v" N3 "b" "k" "s" "l" "y" "k" "w" Q "j" "g" "r" "h" "c" R3 "t" "m" "v" "d" "t" "f" "v" "r" "h" "x" "e" "k" "q" "v" "e" "r" "g" "h" "g" "z" "l" "j" "u" "h" "a" "e") (str.++ "p" "p" "a" "b" "c" "n" "i" "b" "k" "k" "m" "o" "q" "d" "k" "v" "f" "h" "b" "k" "s" "l" "y" "k" "w" "n" N1 "r" "h" "c" "u" "d" "t" "m" "v" "d" "t" "f" "v" "r" "h" "x" "e" "k" "q" "v" "e" "r" C1 "g" "z" "l" "j" "u" "h" "a" "e")))
(assert (= (str.++ "z" "o" "b" "m" "j" "f" "n" "e" "c" "x" "o" "m" "n" "f" "u" "o" "n" "u" "u" "r" "m" "s" "q" "t" "d" "p" "t" "v" "i" "f" "z" "f" E3 "x" "q" "m" "t" "k" C W2 "e" "q" "i" "g" "t" "b" "q" "f" "z" "n" "p" "h" "u" "g") (str.++ "z" "o" "b" "m" "j" "f" Q1 F1 "n" S3 "o" "n" "u" "u" "r" "m" R3 "d" "p" "t" T2 J2 "r" L2 "x" "q" "m" "t" "k" "c" "d" "b" "i" "q" "m" "e" X2 "t" "b" "q" "f" "z" "n" V "g")))
(assert (= (str.++ "m" "z" "e" "j" "x" "z" Q "o" "a" "v" "a" R3 "m" "a" "p" "n" J1 I3 "b" "d" "y" "r" "h" "i" "l" "v" "j" "b" "d" "g" "i" "w" "f" "a" "w" "l" "i" "a" "c" "j" "o" "a" "a" "c" "x" "g" "u" "p" "l" "z" U2 "c" "o" "u" "o" "k") (str.++ "m" A2 "e" "j" "x" "z" "o" "o" "a" C1 C3 Z2 N1 "d" D "r" "h" "i" "l" "v" "j" "b" "d" "g" "i" B3 F2 J "j" "o" "a" "a" "c" "x" "g" "u" "p" "l" "z" "i" "u" "z" "c" "o" "u" "o" "k")))
(assert (= (str.++ "r" "s" "w" "d" "r" "b" "u" C2 "o" "x" L1 "l" "w" "q" "m" "a" "z" "y" "y" "k" "w" "k" "l" "q" "i" "n" T2 "a" "i" "p" "f" M3 "f" "u" "m" "c" "l" "d" "x" "x" "y" Y2 "z" "n" S3 "a" "p" "o" "m" "o" "h" X "t") (str.++ "r" "s" Y A "r" "b" "u" "y" "o" K3 Z "q" T1 "a" "z" "y" J "k" X2 "n" "x" "h" "n" "a" "i" "p" "f" Q3 "b" T C3 "x" "x" "y" "m" P3 "b" "x" "e" "a" "p" "o" "m" "o" "h" "b" "w" "t")))
(assert (= (str.++ "p" "o" G1 M3 "n" "c" C1 "n" "t" "n" "u" "j" "h" "y" "u" "h" "a" "r" "r" O "w" "a" "q" "q" "b" "i" "u" "o" O2 "l" Q1 "q" "q" "o" "b" "c" "m" "p" "q" "l" C3 "c" "y" E3 "x" K2 "j" "c") (str.++ "p" "o" T "g" "n" "c" "r" "v" "n" "t" "n" "u" "j" "h" "y" "u" "h" "a" "r" "r" "m" "m" "w" "a" "q" "q" "b" "i" "u" "o" "w" "i" "y" "l" "x" "e" "r" "q" "q" "o" "b" "c" "m" U "l" "u" "r" "c" "y" "j" "k" "x" "h" "x" "j" "c")))
(check-sat) 
(get-model)